language Essence 1.3

letting course_load be
        function(1 --> 4, 2 --> 3, 3 --> 3, 4 --> 14, 5 --> 6, 6 --> 17, 7 --> 3, 8 --> 3, 9 --> 20, 10 --> 3, 11 --> 3,
                 12 --> 3, 13 --> 3, 14 --> 3, 15 --> 3, 16 --> 6, 17 --> 3, 18 --> 3, 19 --> 3, 20 --> 3, 21 --> 3,
                 22 --> 3, 23 --> 18, 24 --> 3, 25 --> 3, 26 --> 6, 27 --> 3)
letting courses_per_period_lb be 4
letting courses_per_period_ub be 40
letting load_per_period_lb be 18
letting load_per_period_ub be 37
letting n_courses be 27
letting n_periods be 4
letting prerequisite be
        relation((18, 7), (18, 9), (18, 11), (19, 2), (19, 4), (19, 10), (20, 4), (20, 7), (20, 10), (21, 12), (22, 3),
                 (22, 6), (22, 7), (22, 12), (22, 14), (24, 2), (24, 6), (24, 9), (24, 10), (24, 11), (24, 12), (25, 8),
                 (26, 2), (26, 5), (27, 9), (27, 13))
$ Visualisation for prerequisite
$ 18  7
$ 18  9
$ 18 11
$ 19  2
$ 19  4
$ 19 10
$ 20  4
$ 20  7
$ 20 10
$ 21 12
$ 22  3
$ 22  6
$ 22  7
$ 22 12
$ 22 14
$ 24  2
$ 24  6
$ 24  9
$ 24 10
$ 24 11
$ 24 12
$ 25  8
$ 26  2
$ 26  5
$ 27  9
$ 27 13

